p cnf 963 2473
51 -697 -698 0
-51 697 0
-51 698 0
52 -51 -699 0
-52 51 0
-52 699 0
53 -700 -701 0
-53 700 0
-53 701 0
54 -53 -702 0
-54 53 0
-54 702 0
55 -703 -704 0
-55 703 0
-55 704 0
56 -705 -706 0
-56 705 0
-56 706 0
57 -56 -9 0
-57 56 0
-57 9 0
58 -707 -55 0
-58 707 0
-58 55 0
59 -11 -10 0
-59 11 0
-59 10 0
60 -59 -12 0
-60 59 0
-60 12 0
61 -708 -58 0
-61 708 0
-61 58 0
62 -14 -13 0
-62 14 0
-62 13 0
63 -62 -15 0
-63 62 0
-63 15 0
64 -709 -61 0
-64 709 0
-64 61 0
65 -710 -711 0
-65 710 0
-65 711 0
66 -65 -712 0
-66 65 0
-66 712 0
67 -713 -64 0
-67 713 0
-67 64 0
68 -11 -2 0
-68 11 0
-68 2 0
69 -68 -714 0
-69 68 0
-69 714 0
70 -715 -67 0
-70 715 0
-70 67 0
71 -19 -11 0
-71 19 0
-71 11 0
72 -71 -712 0
-72 71 0
-72 712 0
73 -716 -70 0
-73 716 0
-73 70 0
74 -717 -20 0
-74 717 0
-74 20 0
75 -74 -22 0
-75 74 0
-75 22 0
76 -718 -73 0
-76 718 0
-76 73 0
77 -23 -12 0
-77 23 0
-77 12 0
78 -77 -24 0
-78 77 0
-78 24 0
79 -719 -76 0
-79 719 0
-79 76 0
80 -720 -25 0
-80 720 0
-80 25 0
81 -80 -721 0
-81 80 0
-81 721 0
82 -722 -79 0
-82 722 0
-82 79 0
83 -723 -25 0
-83 723 0
-83 25 0
84 -83 -1 0
-84 83 0
-84 1 0
85 -724 -82 0
-85 724 0
-85 82 0
86 -725 -699 0
-86 725 0
-86 699 0
87 -86 -9 0
-87 86 0
-87 9 0
88 -726 -85 0
-88 726 0
-88 85 0
89 -727 -20 0
-89 727 0
-89 20 0
90 -89 -705 0
-90 89 0
-90 705 0
91 -728 -88 0
-91 728 0
-91 88 0
92 -729 -3 0
-92 729 0
-92 3 0
93 -92 -31 0
-93 92 0
-93 31 0
94 -730 -91 0
-94 730 0
-94 91 0
95 -731 -698 0
-95 731 0
-95 698 0
96 -95 -732 0
-96 95 0
-96 732 0
97 -733 -94 0
-97 733 0
-97 94 0
98 -734 -25 0
-98 734 0
-98 25 0
99 -98 -33 0
-99 98 0
-99 33 0
100 -735 -97 0
-100 735 0
-100 97 0
101 -725 -12 0
-101 725 0
-101 12 0
102 -101 -736 0
-102 101 0
-102 736 0
103 -737 -100 0
-103 737 0
-103 100 0
104 -736 -725 0
-104 736 0
-104 725 0
105 -104 -738 0
-105 104 0
-105 738 0
106 -739 -103 0
-106 739 0
-106 103 0
107 -740 -28 0
-107 740 0
-107 28 0
108 -107 -741 0
-108 107 0
-108 741 0
109 -742 -106 0
-109 742 0
-109 106 0
110 -743 -741 0
-110 743 0
-110 741 0
111 -110 -744 0
-111 110 0
-111 744 0
112 -745 -109 0
-112 745 0
-112 109 0
113 -38 -734 0
-113 38 0
-113 734 0
114 -113 -39 0
-114 113 0
-114 39 0
115 -746 -112 0
-115 746 0
-115 112 0
116 -747 -729 0
-116 747 0
-116 729 0
117 -116 -31 0
-117 116 0
-117 31 0
118 -748 -115 0
-118 748 0
-118 115 0
119 -38 -15 0
-119 38 0
-119 15 0
120 -119 -749 0
-120 119 0
-120 749 0
121 -750 -118 0
-121 750 0
-121 118 0
122 -41 -38 0
-122 41 0
-122 38 0
123 -122 -751 0
-123 122 0
-123 751 0
124 -752 -121 0
-124 752 0
-124 121 0
125 -753 -740 0
-125 753 0
-125 740 0
126 -125 -38 0
-126 125 0
-126 38 0
127 -754 -124 0
-127 754 0
-127 124 0
128 -740 -10 0
-128 740 0
-128 10 0
129 -128 -755 0
-129 128 0
-129 755 0
130 -756 -127 0
-130 756 0
-130 127 0
131 -731 -22 0
-131 731 0
-131 22 0
132 -131 -705 0
-132 131 0
-132 705 0
133 -757 -130 0
-133 757 0
-133 130 0
134 -711 -697 0
-134 711 0
-134 697 0
135 -134 -31 0
-135 134 0
-135 31 0
136 -758 -133 0
-136 758 0
-136 133 0
137 -731 -10 0
-137 731 0
-137 10 0
138 -137 -29 0
-138 137 0
-138 29 0
139 -759 -136 0
-139 759 0
-139 136 0
140 -23 -20 0
-140 23 0
-140 20 0
141 -140 -3 0
-141 140 0
-141 3 0
142 -760 -139 0
-142 760 0
-142 139 0
143 -761 -1 0
-143 761 0
-143 1 0
144 -143 -31 0
-144 143 0
-144 31 0
145 -762 -142 0
-145 762 0
-145 142 0
146 -29 -720 0
-146 29 0
-146 720 0
147 -146 -38 0
-147 146 0
-147 38 0
148 -763 -145 0
-148 763 0
-148 145 0
149 -45 -10 0
-149 45 0
-149 10 0
150 -149 -705 0
-150 149 0
-150 705 0
151 -764 -148 0
-151 764 0
-151 148 0
152 -765 -39 0
-152 765 0
-152 39 0
153 -152 -702 0
-153 152 0
-153 702 0
154 -766 -151 0
-154 766 0
-154 151 0
155 -767 -744 0
-155 767 0
-155 744 0
156 -155 -727 0
-156 155 0
-156 727 0
157 -768 -154 0
-157 768 0
-157 154 0
158 -734 -5 0
-158 734 0
-158 5 0
159 -158 -717 0
-159 158 0
-159 717 0
160 -769 -157 0
-160 769 0
-160 157 0
161 -36 -12 0
-161 36 0
-161 12 0
162 -161 -699 0
-162 161 0
-162 699 0
163 -770 -160 0
-163 770 0
-163 160 0
164 -23 -698 0
-164 23 0
-164 698 0
165 -164 -9 0
-165 164 0
-165 9 0
166 -771 -163 0
-166 771 0
-166 163 0
167 -47 -720 0
-167 47 0
-167 720 0
168 -167 -717 0
-168 167 0
-168 717 0
169 -772 -166 0
-169 772 0
-169 166 0
170 -743 -2 0
-170 743 0
-170 2 0
171 -170 -749 0
-171 170 0
-171 749 0
172 -773 -169 0
-172 773 0
-172 169 0
173 -48 -29 0
-173 48 0
-173 29 0
174 -173 -774 0
-174 173 0
-174 774 0
175 -775 -172 0
-175 775 0
-175 172 0
176 -26 -1 0
-176 26 0
-176 1 0
177 -176 -699 0
-177 176 0
-177 699 0
178 -776 -175 0
-178 776 0
-178 175 0
179 -32 -2 0
-179 32 0
-179 2 0
180 -179 -774 0
-180 179 0
-180 774 0
181 -777 -178 0
-181 777 0
-181 178 0
182 -34 -700 0
-182 34 0
-182 700 0
183 -182 -702 0
-183 182 0
-183 702 0
184 -778 -181 0
-184 778 0
-184 181 0
185 -740 -7 0
-185 740 0
-185 7 0
186 -185 -16 0
-186 185 0
-186 16 0
187 -779 -184 0
-187 779 0
-187 184 0
188 -46 -20 0
-188 46 0
-188 20 0
189 -188 -702 0
-189 188 0
-189 702 0
190 -780 -187 0
-190 780 0
-190 187 0
191 -720 -3 0
-191 720 0
-191 3 0
192 -191 -31 0
-192 191 0
-192 31 0
193 -781 -190 0
-193 781 0
-193 190 0
194 -47 -782 0
-194 47 0
-194 782 0
195 -194 -727 0
-195 194 0
-195 727 0
196 -783 -193 0
-196 783 0
-196 193 0
197 -731 -706 0
-197 731 0
-197 706 0
198 -197 -729 0
-198 197 0
-198 729 0
199 -784 -196 0
-199 784 0
-199 196 0
200 -705 -700 0
-200 705 0
-200 700 0
201 -200 -738 0
-201 200 0
-201 738 0
202 -785 -199 0
-202 785 0
-202 199 0
203 -721 -697 0
-203 721 0
-203 697 0
204 -203 -729 0
-204 203 0
-204 729 0
205 -786 -202 0
-205 786 0
-205 202 0
206 -12 -700 0
-206 12 0
-206 700 0
207 -206 -42 0
-207 206 0
-207 42 0
208 -787 -205 0
-208 787 0
-208 205 0
209 -48 -788 0
-209 48 0
-209 788 0
210 -209 -8 0
-210 209 0
-210 8 0
211 -789 -208 0
-211 789 0
-211 208 0
212 -149 -790 0
-212 149 0
-212 790 0
213 -791 -211 0
-213 791 0
-213 211 0
214 -23 -10 0
-214 23 0
-214 10 0
215 -214 -14 0
-215 214 0
-215 14 0
216 -792 -213 0
-216 792 0
-216 213 0
217 -21 -13 0
-217 21 0
-217 13 0
218 -217 -793 0
-218 217 0
-218 793 0
219 -794 -216 0
-219 794 0
-219 216 0
220 -782 -720 0
-220 782 0
-220 720 0
221 -220 -732 0
-221 220 0
-221 732 0
222 -795 -219 0
-222 795 0
-222 219 0
223 -46 -5 0
-223 46 0
-223 5 0
224 -223 -30 0
-224 223 0
-224 30 0
225 -796 -222 0
-225 796 0
-225 222 0
226 -797 -32 0
-226 797 0
-226 32 0
227 -226 -793 0
-227 226 0
-227 793 0
228 -798 -225 0
-228 798 0
-228 225 0
229 -799 -699 0
-229 799 0
-229 699 0
230 -229 -727 0
-230 229 0
-230 727 0
231 -800 -228 0
-231 800 0
-231 228 0
232 -765 -27 0
-232 765 0
-232 27 0
233 -232 -717 0
-233 232 0
-233 717 0
234 -801 -231 0
-234 801 0
-234 231 0
235 -38 -30 0
-235 38 0
-235 30 0
236 -235 -33 0
-236 235 0
-236 33 0
237 -802 -234 0
-237 802 0
-237 234 0
238 -803 -734 0
-238 803 0
-238 734 0
239 -238 -22 0
-239 238 0
-239 22 0
240 -804 -237 0
-240 804 0
-240 237 0
241 -803 -4 0
-241 803 0
-241 4 0
242 -241 -18 0
-242 241 0
-242 18 0
243 -805 -240 0
-243 805 0
-243 240 0
244 -806 -734 0
-244 806 0
-244 734 0
245 -244 -741 0
-245 244 0
-245 741 0
246 -807 -243 0
-246 807 0
-246 243 0
247 -10 -700 0
-247 10 0
-247 700 0
248 -247 -29 0
-248 247 0
-248 29 0
249 -808 -246 0
-249 808 0
-249 246 0
250 -34 -3 0
-250 34 0
-250 3 0
251 -250 -49 0
-251 250 0
-251 49 0
252 -809 -249 0
-252 809 0
-252 249 0
253 -711 -699 0
-253 711 0
-253 699 0
254 -253 -702 0
-254 253 0
-254 702 0
255 -810 -252 0
-255 810 0
-255 252 0
256 -797 -46 0
-256 797 0
-256 46 0
257 -256 -10 0
-257 256 0
-257 10 0
258 -811 -255 0
-258 811 0
-258 255 0
259 -15 -8 0
-259 15 0
-259 8 0
260 -259 -736 0
-260 259 0
-260 736 0
261 -812 -258 0
-261 812 0
-261 258 0
262 -13 -706 0
-262 13 0
-262 706 0
263 -262 -699 0
-263 262 0
-263 699 0
264 -813 -261 0
-264 813 0
-264 261 0
265 -37 -28 0
-265 37 0
-265 28 0
266 -265 -49 0
-266 265 0
-266 49 0
267 -814 -264 0
-267 814 0
-267 264 0
268 -36 -720 0
-268 36 0
-268 720 0
269 -268 -22 0
-269 268 0
-269 22 0
270 -815 -267 0
-270 815 0
-270 267 0
271 -38 -743 0
-271 38 0
-271 743 0
272 -271 -15 0
-272 271 0
-272 15 0
273 -816 -270 0
-273 816 0
-273 270 0
274 -167 -744 0
-274 167 0
-274 744 0
275 -817 -273 0
-275 817 0
-275 273 0
276 -803 -720 0
-276 803 0
-276 720 0
277 -276 -740 0
-277 276 0
-277 740 0
278 -818 -275 0
-278 818 0
-278 275 0
279 -13 -697 0
-279 13 0
-279 697 0
280 -279 -18 0
-280 279 0
-280 18 0
281 -819 -278 0
-281 819 0
-281 278 0
282 -701 -697 0
-282 701 0
-282 697 0
283 -282 -725 0
-283 282 0
-283 725 0
284 -820 -281 0
-284 820 0
-284 281 0
285 -33 -761 0
-285 33 0
-285 761 0
286 -285 -9 0
-286 285 0
-286 9 0
287 -821 -284 0
-287 821 0
-287 284 0
288 -28 -27 0
-288 28 0
-288 27 0
289 -288 -15 0
-289 288 0
-289 15 0
290 -822 -287 0
-290 822 0
-290 287 0
291 -765 -823 0
-291 765 0
-291 823 0
292 -291 -793 0
-292 291 0
-292 793 0
293 -824 -290 0
-293 824 0
-293 290 0
294 -19 -8 0
-294 19 0
-294 8 0
295 -294 -34 0
-295 294 0
-295 34 0
296 -825 -293 0
-296 825 0
-296 293 0
297 -765 -5 0
-297 765 0
-297 5 0
298 -297 -18 0
-298 297 0
-298 18 0
299 -826 -296 0
-299 826 0
-299 296 0
300 -32 -5 0
-300 32 0
-300 5 0
301 -300 -42 0
-301 300 0
-301 42 0
302 -827 -299 0
-302 827 0
-302 299 0
303 -797 -740 0
-303 797 0
-303 740 0
304 -303 -29 0
-304 303 0
-304 29 0
305 -828 -302 0
-305 828 0
-305 302 0
306 -50 -829 0
-306 50 0
-306 829 0
307 -306 -790 0
-307 306 0
-307 790 0
308 -830 -305 0
-308 830 0
-308 305 0
309 -797 -720 0
-309 797 0
-309 720 0
310 -309 -790 0
-310 309 0
-310 790 0
311 -831 -308 0
-311 831 0
-311 308 0
312 -29 -699 0
-312 29 0
-312 699 0
313 -312 -790 0
-313 312 0
-313 790 0
314 -832 -311 0
-314 832 0
-314 311 0
315 -747 -23 0
-315 747 0
-315 23 0
316 -315 -702 0
-316 315 0
-316 702 0
317 -833 -314 0
-317 833 0
-317 314 0
318 -829 -23 0
-318 829 0
-318 23 0
319 -318 -727 0
-319 318 0
-319 727 0
320 -834 -317 0
-320 834 0
-320 317 0
321 -717 -12 0
-321 717 0
-321 12 0
322 -321 -699 0
-322 321 0
-322 699 0
323 -835 -320 0
-323 835 0
-323 320 0
324 -15 -12 0
-324 15 0
-324 12 0
325 -324 -30 0
-325 324 0
-325 30 0
326 -836 -323 0
-326 836 0
-326 323 0
327 -48 -27 0
-327 48 0
-327 27 0
328 -327 -712 0
-328 327 0
-328 712 0
329 -837 -326 0
-329 837 0
-329 326 0
330 -16 -701 0
-330 16 0
-330 701 0
331 -330 -702 0
-331 330 0
-331 702 0
332 -838 -329 0
-332 838 0
-332 329 0
333 -12 -799 0
-333 12 0
-333 799 0
334 -333 -823 0
-334 333 0
-334 823 0
335 -839 -332 0
-335 839 0
-335 332 0
336 -743 -714 0
-336 743 0
-336 714 0
337 -336 -712 0
-337 336 0
-337 712 0
338 -840 -335 0
-338 840 0
-338 335 0
339 -767 -8 0
-339 767 0
-339 8 0
340 -339 -736 0
-340 339 0
-340 736 0
341 -841 -338 0
-341 841 0
-341 338 0
342 -50 -734 0
-342 50 0
-342 734 0
343 -342 -19 0
-343 342 0
-343 19 0
344 -842 -341 0
-344 842 0
-344 341 0
345 -829 -725 0
-345 829 0
-345 725 0
346 -345 -45 0
-346 345 0
-346 45 0
347 -843 -344 0
-347 843 0
-347 344 0
348 -761 -711 0
-348 761 0
-348 711 0
349 -348 -34 0
-349 348 0
-349 34 0
350 -844 -347 0
-350 844 0
-350 347 0
351 -44 -24 0
-351 44 0
-351 24 0
352 -351 -845 0
-352 351 0
-352 845 0
353 -846 -350 0
-353 846 0
-353 350 0
354 -21 -732 0
-354 21 0
-354 732 0
355 -354 -738 0
-355 354 0
-355 738 0
356 -847 -353 0
-356 847 0
-356 353 0
357 -5 -701 0
-357 5 0
-357 701 0
358 -357 -714 0
-358 357 0
-358 714 0
359 -848 -356 0
-359 848 0
-359 356 0
360 -767 -7 0
-360 767 0
-360 7 0
361 -360 -712 0
-361 360 0
-361 712 0
362 -849 -359 0
-362 849 0
-362 359 0
363 -8 -706 0
-363 8 0
-363 706 0
364 -363 -749 0
-364 363 0
-364 749 0
365 -850 -362 0
-365 850 0
-365 362 0
366 -788 -698 0
-366 788 0
-366 698 0
367 -366 -799 0
-367 366 0
-367 799 0
368 -851 -365 0
-368 851 0
-368 365 0
369 -723 -26 0
-369 723 0
-369 26 0
370 -369 -3 0
-370 369 0
-370 3 0
371 -852 -368 0
-371 852 0
-371 368 0
372 -23 -16 0
-372 23 0
-372 16 0
373 -372 -741 0
-373 372 0
-373 741 0
374 -853 -371 0
-374 853 0
-374 371 0
375 -41 -23 0
-375 41 0
-375 23 0
376 -375 -747 0
-376 375 0
-376 747 0
377 -854 -374 0
-377 854 0
-377 374 0
378 -45 -743 0
-378 45 0
-378 743 0
379 -378 -714 0
-379 378 0
-379 714 0
380 -855 -377 0
-380 855 0
-380 377 0
381 -14 -3 0
-381 14 0
-381 3 0
382 -381 -790 0
-382 381 0
-382 790 0
383 -856 -380 0
-383 856 0
-383 380 0
384 -33 -725 0
-384 33 0
-384 725 0
385 -384 -702 0
-385 384 0
-385 702 0
386 -857 -383 0
-386 857 0
-386 383 0
387 -47 -714 0
-387 47 0
-387 714 0
388 -387 -6 0
-388 387 0
-388 6 0
389 -858 -386 0
-389 858 0
-389 386 0
390 -25 -2 0
-390 25 0
-390 2 0
391 -390 -16 0
-391 390 0
-391 16 0
392 -859 -389 0
-392 859 0
-392 389 0
393 -43 -16 0
-393 43 0
-393 16 0
394 -393 -19 0
-394 393 0
-394 19 0
395 -860 -392 0
-395 860 0
-395 392 0
396 -721 -710 0
-396 721 0
-396 710 0
397 -396 -22 0
-397 396 0
-397 22 0
398 -861 -395 0
-398 861 0
-398 395 0
399 -11 -706 0
-399 11 0
-399 706 0
400 -399 -9 0
-400 399 0
-400 9 0
401 -862 -398 0
-401 862 0
-401 398 0
402 -25 -761 0
-402 25 0
-402 761 0
403 -402 -714 0
-403 402 0
-403 714 0
404 -863 -401 0
-404 863 0
-404 401 0
405 -864 -697 0
-405 864 0
-405 697 0
406 -405 -705 0
-406 405 0
-406 705 0
407 -865 -404 0
-407 865 0
-407 404 0
408 -42 -14 0
-408 42 0
-408 14 0
409 -408 -9 0
-409 408 0
-409 9 0
410 -866 -407 0
-410 866 0
-410 407 0
411 -36 -723 0
-411 36 0
-411 723 0
412 -411 -845 0
-412 411 0
-412 845 0
413 -867 -410 0
-413 867 0
-413 410 0
414 -27 -799 0
-414 27 0
-414 799 0
415 -414 -744 0
-415 414 0
-415 744 0
416 -868 -413 0
-416 868 0
-416 413 0
417 -736 -717 0
-417 736 0
-417 717 0
418 -417 -793 0
-418 417 0
-418 793 0
419 -869 -416 0
-419 869 0
-419 416 0
420 -25 -702 0
-420 25 0
-420 702 0
421 -420 -845 0
-421 420 0
-421 845 0
422 -870 -419 0
-422 870 0
-422 419 0
423 -747 -761 0
-423 747 0
-423 761 0
424 -423 -10 0
-424 423 0
-424 10 0
425 -871 -422 0
-425 871 0
-425 422 0
426 -28 -18 0
-426 28 0
-426 18 0
427 -426 -845 0
-427 426 0
-427 845 0
428 -872 -425 0
-428 872 0
-428 425 0
429 -743 -7 0
-429 743 0
-429 7 0
430 -429 -725 0
-430 429 0
-430 725 0
431 -873 -428 0
-431 873 0
-431 428 0
432 -829 -28 0
-432 829 0
-432 28 0
433 -432 -747 0
-433 432 0
-433 747 0
434 -874 -431 0
-434 874 0
-434 431 0
435 -10 -2 0
-435 10 0
-435 2 0
436 -435 -31 0
-436 435 0
-436 31 0
437 -875 -434 0
-437 875 0
-437 434 0
438 -765 -731 0
-438 765 0
-438 731 0
439 -438 -35 0
-439 438 0
-439 35 0
440 -876 -437 0
-440 876 0
-440 437 0
441 -765 -20 0
-441 765 0
-441 20 0
442 -441 -45 0
-442 441 0
-442 45 0
443 -877 -440 0
-443 877 0
-443 440 0
444 -125 -712 0
-444 125 0
-444 712 0
445 -878 -443 0
-445 878 0
-445 443 0
446 -40 -28 0
-446 40 0
-446 28 0
447 -446 -47 0
-447 446 0
-447 47 0
448 -879 -445 0
-448 879 0
-448 445 0
449 -98 -6 0
-449 98 0
-449 6 0
450 -880 -448 0
-450 880 0
-450 448 0
451 -16 -698 0
-451 16 0
-451 698 0
452 -451 -33 0
-452 451 0
-452 33 0
453 -881 -450 0
-453 881 0
-453 450 0
454 -793 -20 0
-454 793 0
-454 20 0
455 -454 -845 0
-455 454 0
-455 845 0
456 -882 -453 0
-456 882 0
-456 453 0
457 -12 -701 0
-457 12 0
-457 701 0
458 -457 -705 0
-458 457 0
-458 705 0
459 -883 -456 0
-459 883 0
-459 456 0
460 -714 -698 0
-460 714 0
-460 698 0
461 -460 -42 0
-461 460 0
-461 42 0
462 -884 -459 0
-462 884 0
-462 459 0
463 -30 -706 0
-463 30 0
-463 706 0
464 -463 -33 0
-464 463 0
-464 33 0
465 -885 -462 0
-465 885 0
-465 462 0
466 -700 -1 0
-466 700 0
-466 1 0
467 -466 -714 0
-467 466 0
-467 714 0
468 -886 -465 0
-468 886 0
-468 465 0
469 -50 -761 0
-469 50 0
-469 761 0
470 -469 -21 0
-470 469 0
-470 21 0
471 -887 -468 0
-471 887 0
-471 468 0
472 -324 -42 0
-472 324 0
-472 42 0
473 -888 -471 0
-473 888 0
-473 471 0
474 -743 -788 0
-474 743 0
-474 788 0
475 -474 -36 0
-475 474 0
-475 36 0
476 -889 -473 0
-476 889 0
-476 473 0
477 -19 -697 0
-477 19 0
-477 697 0
478 -477 -34 0
-478 477 0
-478 34 0
479 -890 -476 0
-479 890 0
-479 476 0
480 -761 -2 0
-480 761 0
-480 2 0
481 -480 -823 0
-481 480 0
-481 823 0
482 -891 -479 0
-482 891 0
-482 479 0
483 -747 -20 0
-483 747 0
-483 20 0
484 -483 -33 0
-484 483 0
-484 33 0
485 -892 -482 0
-485 892 0
-485 482 0
486 -47 -13 0
-486 47 0
-486 13 0
487 -486 -697 0
-487 486 0
-487 697 0
488 -893 -485 0
-488 893 0
-488 485 0
489 -743 -720 0
-489 743 0
-489 720 0
490 -489 -2 0
-490 489 0
-490 2 0
491 -894 -488 0
-491 894 0
-491 488 0
492 -26 -25 0
-492 26 0
-492 25 0
493 -492 -741 0
-493 492 0
-493 741 0
494 -895 -491 0
-494 895 0
-494 491 0
495 -48 -744 0
-495 48 0
-495 744 0
496 -495 -823 0
-496 495 0
-496 823 0
497 -896 -494 0
-497 896 0
-497 494 0
498 -36 -700 0
-498 36 0
-498 700 0
499 -498 -845 0
-499 498 0
-499 845 0
500 -897 -497 0
-500 897 0
-500 497 0
501 -803 -19 0
-501 803 0
-501 19 0
502 -501 -22 0
-502 501 0
-502 22 0
503 -898 -500 0
-503 898 0
-503 500 0
504 -51 -823 0
-504 51 0
-504 823 0
505 -899 -503 0
-505 899 0
-505 503 0
506 -48 -799 0
-506 48 0
-506 799 0
507 -506 -725 0
-507 506 0
-507 725 0
508 -900 -505 0
-508 900 0
-508 505 0
509 -829 -743 0
-509 829 0
-509 743 0
510 -509 -702 0
-510 509 0
-510 702 0
511 -901 -508 0
-511 901 0
-511 508 0
512 -717 -761 0
-512 717 0
-512 761 0
513 -512 -823 0
-513 512 0
-513 823 0
514 -902 -511 0
-514 902 0
-514 511 0
515 -806 -753 0
-515 806 0
-515 753 0
516 -515 -49 0
-516 515 0
-516 49 0
517 -903 -514 0
-517 903 0
-517 514 0
518 -46 -15 0
-518 46 0
-518 15 0
519 -518 -755 0
-519 518 0
-519 755 0
520 -904 -517 0
-520 904 0
-520 517 0
521 -15 -705 0
-521 15 0
-521 705 0
522 -521 -42 0
-522 521 0
-522 42 0
523 -905 -520 0
-523 905 0
-523 520 0
524 -30 -29 0
-524 30 0
-524 29 0
525 -524 -738 0
-525 524 0
-525 738 0
526 -906 -523 0
-526 906 0
-526 523 0
527 -761 -712 0
-527 761 0
-527 712 0
528 -527 -751 0
-528 527 0
-528 751 0
529 -907 -526 0
-529 907 0
-529 526 0
530 -46 -2 0
-530 46 0
-530 2 0
531 -530 -8 0
-531 530 0
-531 8 0
532 -908 -529 0
-532 908 0
-532 529 0
533 -734 -864 0
-533 734 0
-533 864 0
534 -533 -702 0
-534 533 0
-534 702 0
535 -909 -532 0
-535 909 0
-535 532 0
536 -803 -23 0
-536 803 0
-536 23 0
537 -536 -740 0
-537 536 0
-537 740 0
538 -910 -535 0
-538 910 0
-538 535 0
539 -17 -701 0
-539 17 0
-539 701 0
540 -539 -9 0
-540 539 0
-540 9 0
541 -911 -538 0
-541 911 0
-541 538 0
542 -32 -700 0
-542 32 0
-542 700 0
543 -542 -47 0
-543 542 0
-543 47 0
544 -912 -541 0
-544 912 0
-544 541 0
545 -710 -706 0
-545 710 0
-545 706 0
546 -545 -725 0
-546 545 0
-546 725 0
547 -913 -544 0
-547 913 0
-547 544 0
548 -734 -1 0
-548 734 0
-548 1 0
549 -548 -790 0
-549 548 0
-549 790 0
550 -914 -547 0
-550 914 0
-550 547 0
551 -38 -3 0
-551 38 0
-551 3 0
552 -551 -712 0
-552 551 0
-552 712 0
553 -915 -550 0
-553 915 0
-553 550 0
554 -23 -5 0
-554 23 0
-554 5 0
555 -554 -712 0
-555 554 0
-555 712 0
556 -916 -553 0
-556 916 0
-556 553 0
557 -40 -27 0
-557 40 0
-557 27 0
558 -557 -753 0
-558 557 0
-558 753 0
559 -917 -556 0
-559 917 0
-559 556 0
560 -41 -731 0
-560 41 0
-560 731 0
561 -560 -38 0
-561 560 0
-561 38 0
562 -918 -559 0
-562 918 0
-562 559 0
563 -761 -13 0
-563 761 0
-563 13 0
564 -563 -43 0
-564 563 0
-564 43 0
565 -919 -562 0
-565 919 0
-565 562 0
566 -806 -864 0
-566 806 0
-566 864 0
567 -566 -18 0
-567 566 0
-567 18 0
568 -920 -565 0
-568 920 0
-568 565 0
569 -46 -782 0
-569 46 0
-569 782 0
570 -569 -17 0
-570 569 0
-570 17 0
571 -921 -568 0
-571 921 0
-571 568 0
572 -732 -788 0
-572 732 0
-572 788 0
573 -572 -24 0
-573 572 0
-573 24 0
574 -922 -571 0
-574 922 0
-574 571 0
575 -788 -1 0
-575 788 0
-575 1 0
576 -575 -699 0
-576 575 0
-576 699 0
577 -923 -574 0
-577 923 0
-577 574 0
578 -15 -2 0
-578 15 0
-578 2 0
579 -578 -34 0
-579 578 0
-579 34 0
580 -924 -577 0
-580 924 0
-580 577 0
581 -829 -712 0
-581 829 0
-581 712 0
582 -581 -35 0
-582 581 0
-582 35 0
583 -925 -580 0
-583 925 0
-583 580 0
584 -712 -698 0
-584 712 0
-584 698 0
585 -584 -774 0
-585 584 0
-585 774 0
586 -926 -583 0
-586 926 0
-586 583 0
587 -803 -13 0
-587 803 0
-587 13 0
588 -587 -845 0
-588 587 0
-588 845 0
589 -927 -586 0
-589 927 0
-589 586 0
590 -32 -720 0
-590 32 0
-590 720 0
591 -590 -16 0
-591 590 0
-591 16 0
592 -928 -589 0
-592 928 0
-592 589 0
593 -49 -1 0
-593 49 0
-593 1 0
594 -593 -42 0
-594 593 0
-594 42 0
595 -929 -592 0
-595 929 0
-595 592 0
596 -32 -698 0
-596 32 0
-596 698 0
597 -596 -15 0
-597 596 0
-597 15 0
598 -930 -595 0
-598 930 0
-598 595 0
599 -50 -2 0
-599 50 0
-599 2 0
600 -599 -29 0
-600 599 0
-600 29 0
601 -931 -598 0
-601 931 0
-601 598 0
602 -25 -744 0
-602 25 0
-602 744 0
603 -602 -34 0
-603 602 0
-603 34 0
604 -932 -601 0
-604 932 0
-604 601 0
605 -48 -743 0
-605 48 0
-605 743 0
606 -605 -714 0
-606 605 0
-606 714 0
607 -933 -604 0
-607 933 0
-607 604 0
608 -37 -698 0
-608 37 0
-608 698 0
609 -608 -823 0
-609 608 0
-609 823 0
610 -934 -607 0
-610 934 0
-610 607 0
611 -782 -753 0
-611 782 0
-611 753 0
612 -611 -44 0
-612 611 0
-612 44 0
613 -935 -610 0
-613 935 0
-613 610 0
614 -25 -19 0
-614 25 0
-614 19 0
615 -614 -15 0
-615 614 0
-615 15 0
616 -936 -613 0
-616 936 0
-616 613 0
617 -721 -711 0
-617 721 0
-617 711 0
618 -617 -714 0
-618 617 0
-618 714 0
619 -937 -616 0
-619 937 0
-619 616 0
620 -765 -36 0
-620 765 0
-620 36 0
621 -620 -725 0
-621 620 0
-621 725 0
622 -938 -619 0
-622 938 0
-622 619 0
623 -29 -700 0
-623 29 0
-623 700 0
624 -623 -732 0
-624 623 0
-624 732 0
625 -939 -622 0
-625 939 0
-625 622 0
626 -721 -6 0
-626 721 0
-626 6 0
627 -626 -751 0
-627 626 0
-627 751 0
628 -940 -625 0
-628 940 0
-628 625 0
629 -732 -1 0
-629 732 0
-629 1 0
630 -629 -702 0
-630 629 0
-630 702 0
631 -941 -628 0
-631 941 0
-631 628 0
632 -22 -13 0
-632 22 0
-632 13 0
633 -632 -727 0
-633 632 0
-633 727 0
634 -942 -631 0
-634 942 0
-634 631 0
635 -767 -26 0
-635 767 0
-635 26 0
636 -635 -741 0
-636 635 0
-636 741 0
637 -943 -634 0
-637 943 0
-637 634 0
638 -45 -700 0
-638 45 0
-638 700 0
639 -638 -18 0
-639 638 0
-639 18 0
640 -944 -637 0
-640 944 0
-640 637 0
641 -711 -700 0
-641 711 0
-641 700 0
642 -641 -751 0
-642 641 0
-642 751 0
643 -945 -640 0
-643 945 0
-643 640 0
644 -50 -723 0
-644 50 0
-644 723 0
645 -644 -15 0
-645 644 0
-645 15 0
646 -946 -643 0
-646 946 0
-646 643 0
647 -829 -20 0
-647 829 0
-647 20 0
648 -647 -755 0
-648 647 0
-648 755 0
649 -947 -646 0
-649 947 0
-649 646 0
650 -765 -711 0
-650 765 0
-650 711 0
651 -650 -31 0
-651 650 0
-651 31 0
652 -948 -649 0
-652 948 0
-652 649 0
653 -16 -14 0
-653 16 0
-653 14 0
654 -653 -741 0
-654 653 0
-654 741 0
655 -949 -652 0
-655 949 0
-655 652 0
656 -797 -774 0
-656 797 0
-656 774 0
657 -656 -751 0
-657 656 0
-657 751 0
658 -950 -655 0
-658 950 0
-658 655 0
659 -734 -4 0
-659 734 0
-659 4 0
660 -659 -725 0
-660 659 0
-660 725 0
661 -951 -658 0
-661 951 0
-661 658 0
662 -782 -26 0
-662 782 0
-662 26 0
663 -662 -17 0
-663 662 0
-663 17 0
664 -952 -661 0
-664 952 0
-664 661 0
665 -32 -701 0
-665 32 0
-665 701 0
666 -665 -38 0
-666 665 0
-666 38 0
667 -953 -664 0
-667 953 0
-667 664 0
668 -27 -16 0
-668 27 0
-668 16 0
669 -668 -15 0
-669 668 0
-669 15 0
670 -954 -667 0
-670 954 0
-670 667 0
671 -40 -710 0
-671 40 0
-671 710 0
672 -671 -749 0
-672 671 0
-672 749 0
673 -955 -670 0
-673 955 0
-673 670 0
674 -44 -729 0
-674 44 0
-674 729 0
675 -674 -774 0
-675 674 0
-675 774 0
676 -956 -673 0
-676 956 0
-676 673 0
677 -40 -4 0
-677 40 0
-677 4 0
678 -677 -732 0
-678 677 0
-678 732 0
679 -957 -676 0
-679 957 0
-679 676 0
680 -37 -701 0
-680 37 0
-680 701 0
681 -680 -806 0
-681 680 0
-681 806 0
682 -958 -679 0
-682 958 0
-682 679 0
683 -480 -6 0
-683 480 0
-683 6 0
684 -959 -682 0
-684 959 0
-684 682 0
685 -32 -10 0
-685 32 0
-685 10 0
686 -685 -3 0
-686 685 0
-686 3 0
687 -960 -684 0
-687 960 0
-687 684 0
688 -753 -714 0
-688 753 0
-688 714 0
689 -688 -44 0
-689 688 0
-689 44 0
690 -961 -687 0
-690 961 0
-690 687 0
691 -50 -43 0
-691 50 0
-691 43 0
692 -691 -9 0
-692 691 0
-692 9 0
693 -962 -690 0
-693 962 0
-693 690 0
694 -46 -723 0
-694 46 0
-694 723 0
695 -694 -751 0
-695 694 0
-695 751 0
696 -963 -693 0
-696 963 0
-696 693 0
-697 -2 0
697 2 0
-698 -1 0
698 1 0
-699 -3 0
699 3 0
-700 -5 0
700 5 0
-701 -4 0
701 4 0
-702 -6 0
702 6 0
-703 -54 0
703 54 0
-704 -52 0
704 52 0
-705 -8 0
705 8 0
-706 -7 0
706 7 0
-707 -57 0
707 57 0
-708 -60 0
708 60 0
-709 -63 0
709 63 0
-710 -16 0
710 16 0
-711 -10 0
711 10 0
-712 -17 0
712 17 0
-713 -66 0
713 66 0
-714 -18 0
714 18 0
-715 -69 0
715 69 0
-716 -72 0
716 72 0
-717 -21 0
717 21 0
-718 -75 0
718 75 0
-719 -78 0
719 78 0
-720 -26 0
720 26 0
-721 -27 0
721 27 0
-722 -81 0
722 81 0
-723 -28 0
723 28 0
-724 -84 0
724 84 0
-725 -29 0
725 29 0
-726 -87 0
726 87 0
-727 -30 0
727 30 0
-728 -90 0
728 90 0
-729 -14 0
729 14 0
-730 -93 0
730 93 0
-731 -25 0
731 25 0
-732 -19 0
732 19 0
-733 -96 0
733 96 0
-734 -32 0
734 32 0
-735 -99 0
735 99 0
-736 -34 0
736 34 0
-737 -102 0
737 102 0
-738 -35 0
738 35 0
-739 -105 0
739 105 0
-740 -36 0
740 36 0
-741 -15 0
741 15 0
-742 -108 0
742 108 0
-743 -37 0
743 37 0
-744 -22 0
744 22 0
-745 -111 0
745 111 0
-746 -114 0
746 114 0
-747 -40 0
747 40 0
-748 -117 0
748 117 0
-749 -24 0
749 24 0
-750 -120 0
750 120 0
-751 -42 0
751 42 0
-752 -123 0
752 123 0
-753 -43 0
753 43 0
-754 -126 0
754 126 0
-755 -44 0
755 44 0
-756 -129 0
756 129 0
-757 -132 0
757 132 0
-758 -135 0
758 135 0
-759 -138 0
759 138 0
-760 -141 0
760 141 0
-761 -20 0
761 20 0
-762 -144 0
762 144 0
-763 -147 0
763 147 0
-764 -150 0
764 150 0
-765 -46 0
765 46 0
-766 -153 0
766 153 0
-767 -38 0
767 38 0
-768 -156 0
768 156 0
-769 -159 0
769 159 0
-770 -162 0
770 162 0
-771 -165 0
771 165 0
-772 -168 0
772 168 0
-773 -171 0
773 171 0
-774 -39 0
774 39 0
-775 -174 0
775 174 0
-776 -177 0
776 177 0
-777 -180 0
777 180 0
-778 -183 0
778 183 0
-779 -186 0
779 186 0
-780 -189 0
780 189 0
-781 -192 0
781 192 0
-782 -45 0
782 45 0
-783 -195 0
783 195 0
-784 -198 0
784 198 0
-785 -201 0
785 201 0
-786 -204 0
786 204 0
-787 -207 0
787 207 0
-788 -13 0
788 13 0
-789 -210 0
789 210 0
-790 -31 0
790 31 0
-791 -212 0
791 212 0
-792 -215 0
792 215 0
-793 -49 0
793 49 0
-794 -218 0
794 218 0
-795 -221 0
795 221 0
-796 -224 0
796 224 0
-797 -50 0
797 50 0
-798 -227 0
798 227 0
-799 -11 0
799 11 0
-800 -230 0
800 230 0
-801 -233 0
801 233 0
-802 -236 0
802 236 0
-803 -41 0
803 41 0
-804 -239 0
804 239 0
-805 -242 0
805 242 0
-806 -47 0
806 47 0
-807 -245 0
807 245 0
-808 -248 0
808 248 0
-809 -251 0
809 251 0
-810 -254 0
810 254 0
-811 -257 0
811 257 0
-812 -260 0
812 260 0
-813 -263 0
813 263 0
-814 -266 0
814 266 0
-815 -269 0
815 269 0
-816 -272 0
816 272 0
-817 -274 0
817 274 0
-818 -277 0
818 277 0
-819 -280 0
819 280 0
-820 -283 0
820 283 0
-821 -286 0
821 286 0
-822 -289 0
822 289 0
-823 -33 0
823 33 0
-824 -292 0
824 292 0
-825 -295 0
825 295 0
-826 -298 0
826 298 0
-827 -301 0
827 301 0
-828 -304 0
828 304 0
-829 -48 0
829 48 0
-830 -307 0
830 307 0
-831 -310 0
831 310 0
-832 -313 0
832 313 0
-833 -316 0
833 316 0
-834 -319 0
834 319 0
-835 -322 0
835 322 0
-836 -325 0
836 325 0
-837 -328 0
837 328 0
-838 -331 0
838 331 0
-839 -334 0
839 334 0
-840 -337 0
840 337 0
-841 -340 0
841 340 0
-842 -343 0
842 343 0
-843 -346 0
843 346 0
-844 -349 0
844 349 0
-845 -9 0
845 9 0
-846 -352 0
846 352 0
-847 -355 0
847 355 0
-848 -358 0
848 358 0
-849 -361 0
849 361 0
-850 -364 0
850 364 0
-851 -367 0
851 367 0
-852 -370 0
852 370 0
-853 -373 0
853 373 0
-854 -376 0
854 376 0
-855 -379 0
855 379 0
-856 -382 0
856 382 0
-857 -385 0
857 385 0
-858 -388 0
858 388 0
-859 -391 0
859 391 0
-860 -394 0
860 394 0
-861 -397 0
861 397 0
-862 -400 0
862 400 0
-863 -403 0
863 403 0
-864 -12 0
864 12 0
-865 -406 0
865 406 0
-866 -409 0
866 409 0
-867 -412 0
867 412 0
-868 -415 0
868 415 0
-869 -418 0
869 418 0
-870 -421 0
870 421 0
-871 -424 0
871 424 0
-872 -427 0
872 427 0
-873 -430 0
873 430 0
-874 -433 0
874 433 0
-875 -436 0
875 436 0
-876 -439 0
876 439 0
-877 -442 0
877 442 0
-878 -444 0
878 444 0
-879 -447 0
879 447 0
-880 -449 0
880 449 0
-881 -452 0
881 452 0
-882 -455 0
882 455 0
-883 -458 0
883 458 0
-884 -461 0
884 461 0
-885 -464 0
885 464 0
-886 -467 0
886 467 0
-887 -470 0
887 470 0
-888 -472 0
888 472 0
-889 -475 0
889 475 0
-890 -478 0
890 478 0
-891 -481 0
891 481 0
-892 -484 0
892 484 0
-893 -487 0
893 487 0
-894 -490 0
894 490 0
-895 -493 0
895 493 0
-896 -496 0
896 496 0
-897 -499 0
897 499 0
-898 -502 0
898 502 0
-899 -504 0
899 504 0
-900 -507 0
900 507 0
-901 -510 0
901 510 0
-902 -513 0
902 513 0
-903 -516 0
903 516 0
-904 -519 0
904 519 0
-905 -522 0
905 522 0
-906 -525 0
906 525 0
-907 -528 0
907 528 0
-908 -531 0
908 531 0
-909 -534 0
909 534 0
-910 -537 0
910 537 0
-911 -540 0
911 540 0
-912 -543 0
912 543 0
-913 -546 0
913 546 0
-914 -549 0
914 549 0
-915 -552 0
915 552 0
-916 -555 0
916 555 0
-917 -558 0
917 558 0
-918 -561 0
918 561 0
-919 -564 0
919 564 0
-920 -567 0
920 567 0
-921 -570 0
921 570 0
-922 -573 0
922 573 0
-923 -576 0
923 576 0
-924 -579 0
924 579 0
-925 -582 0
925 582 0
-926 -585 0
926 585 0
-927 -588 0
927 588 0
-928 -591 0
928 591 0
-929 -594 0
929 594 0
-930 -597 0
930 597 0
-931 -600 0
931 600 0
-932 -603 0
932 603 0
-933 -606 0
933 606 0
-934 -609 0
934 609 0
-935 -612 0
935 612 0
-936 -615 0
936 615 0
-937 -618 0
937 618 0
-938 -621 0
938 621 0
-939 -624 0
939 624 0
-940 -627 0
940 627 0
-941 -630 0
941 630 0
-942 -633 0
942 633 0
-943 -636 0
943 636 0
-944 -639 0
944 639 0
-945 -642 0
945 642 0
-946 -645 0
946 645 0
-947 -648 0
947 648 0
-948 -651 0
948 651 0
-949 -654 0
949 654 0
-950 -657 0
950 657 0
-951 -660 0
951 660 0
-952 -663 0
952 663 0
-953 -666 0
953 666 0
-954 -669 0
954 669 0
-955 -672 0
955 672 0
-956 -675 0
956 675 0
-957 -678 0
957 678 0
-958 -681 0
958 681 0
-959 -683 0
959 683 0
-960 -686 0
960 686 0
-961 -689 0
961 689 0
-962 -692 0
962 692 0
-963 -695 0
963 695 0
696 0
